5 5
2 70 4 53 1 66 0 58 3 82
4 87 1 2 2 76 3 22 0 37
1 20 0 24 4 84 3 65 2 65
0 81 3 1 4 94 1 3 2 46
3 55 4 75 2 88 1 86 0 64
-1
0 1 3 4 5
0 2 5
0 1 3 4 5
0 2 3 5
0 1 2 5
-2
108 207 247 523
119 257
22 200 216 352
107 225 234
58 162 543

475 7
15 11 9 3 24
10 6 2 23 18
0 7 22 14 19
20 16 8 13 4
5 1 21 12 17
